c description: Random 5-CNF over 15 variables and 15 clauses
c generator: CNFgen (0.9.0)
c copyright: (C) 2012-2020 Massimo Lauria <massimo.lauria@uniroma1.it>
c url: https://massimolauria.net/cnfgen
c
p cnf 15 15
5 -6 12 14 15 0
-4 7 13 14 -15 0
3 -4 -6 9 13 0
-1 -3 -5 -7 8 0
-2 3 5 11 15 0
2 4 -8 -12 -13 0
-1 -6 -7 11 12 0
-1 -3 4 7 -12 0
1 2 4 -14 -15 0
-7 -8 -11 12 13 0
-1 2 -8 11 -15 0
1 -5 7 -8 -11 0
-6 -7 9 -13 14 0
-1 -5 -7 -12 15 0
-1 -2 -3 -4 -8 0